(set-logic ALL)
(declare-const limit_VAR Int)
(assert (<= 4 limit_VAR))
(assert (<= 6 limit_VAR))
(assert (<= 8 limit_VAR))
(assert (not (> 6 limit_VAR)))
(assert (<= 0 limit_VAR))
(assert (<= 6 limit_VAR))
(assert (not (> 6 limit_VAR)))
(assert (<= 9 limit_VAR))
(assert (<= 12 limit_VAR))
(assert (<= 15 limit_VAR))
(assert (<= 18 limit_VAR))
(assert (<= 21 limit_VAR))
(assert (<= 24 limit_VAR))
(assert (not (> 20 limit_VAR)))
(assert (<= 0 limit_VAR))
(assert (<= 15 limit_VAR))
(assert (not (> 15 limit_VAR)))
(assert (<= 25 limit_VAR))
(assert (not (<= 30 limit_VAR)))
(assert (not (> 42 limit_VAR)))
(check-sat)
(get-value (limit_VAR))
